100
21	100
24	52
15	23
16	78
27	60
9	88
29	78
10	37
2	85
19	15
11	40
8	87
10	10
24	31
29	91
23	75
25	1
12	10
22	33
19	32
19	12
17	97
27	63
28	36
19	57
7	38
27	88
17	84
3	99
20	83
25	100
25	25
14	39
11	15
28	51
2	79
28	14
29	3
24	34
14	93
16	11
13	80
8	48
24	53
13	56
16	1
4	59
20	29
26	80
15	34
11	9
6	6
2	83
28	20
14	20
14	82
27	11
9	48
25	84
11	32
4	99
24	9
5	40
4	84
27	36
26	77
5	4
24	27
14	11
29	97
13	89
28	95
28	89
19	5
28	14
26	18
17	62
5	100
17	80
9	64
1	30
7	1
28	36
19	25
9	9
18	28
29	90
2	28
25	76
22	8
13	87
18	21
30	13
5	47
13	29
28	41
26	89
7	78
28	29
16	97
